0 1992
1 1685
2 1622
3 1622
4 1559
5 1521
6 1485
7 1452
8 1452
9 1355
10 1355
11 1351
12 1347
13 1295
14 1291
15 1291
16 1291
17 1277
18 1277
19 1277
20 1277
21 1277
22 1277
23 1277
24 1276
25 1273
26 1256
27 1234
28 1234
29 1234
30 1211
31 1211
32 1190
33 1190
34 1185
35 1166
36 1166
37 1166
38 1166
39 1166
40 1154
41 1154
42 1151
43 1150
44 1144
45 1130
46 1130
47 1130
48 1130
49 1130
50 1130
51 1130
52 1130
53 1128
54 1128
55 1128
56 1120
57 1120
58 1120
59 1120
60 1120
61 1120
62 1119
63 1105
64 1105
65 1104
66 1104
67 1104
68 1104
69 1104
70 1104
71 1104
72 1092
73 1092
74 1092
75 1092
76 1092
77 1092
78 1080
79 1080
80 1080
81 1080
82 1080
83 1074
84 1074
85 1074
86 1074
87 1074
88 1074
89 1074
90 1074
91 1074
92 1074
93 1074
94 1074
95 1074
96 1074
97 1074
98 1074
99 1074
100 1074
101 1074
102 1074
103 1074
104 1069
105 1069
106 1069
107 1069
108 1069
109 1069
110 1069
111 1069
112 1069
113 1069
114 1069
115 1069
116 1069
117 1069
118 1069
119 1069
120 1069
121 1069
122 1069
123 1069
124 1069
125 1069
126 1069
127 1069
128 1069
129 1069
130 1069
131 1069
132 1069
133 1069
134 1069
135 1069
136 1069
137 1069
138 1069
139 1069
140 1069
141 1069
142 1069
143 1069
144 1069
145 1069
146 1069
147 1069
148 1069
149 1069
150 1058
151 1058
152 1058
153 1058
154 1058
155 1058
156 1050
157 1050
158 1050
159 1050
160 1050
161 1050
162 1050
163 1050
164 1050
165 1050
166 1048
167 1048
168 1048
169 1048
170 1048
171 1048
172 1048
173 1043
174 1043
175 1043
176 1043
177 1043
178 1043
179 1043
180 1043
181 1043
182 1043
183 1043
184 1043
185 1043
186 1043
187 1043
188 1043
189 1043
190 1043
191 1043
192 1026
193 1026
194 1026
195 1026
196 1026
197 1022
198 1022
199 1022
200 1022
201 1022
202 1022
203 1022
204 1022
205 1022
206 1022
207 1022
208 1022
209 1022
210 1022
211 1022
212 1022
213 1022
214 1022
215 1022
216 1022
217 1022
218 1022
219 1022
220 1022
221 1022
222 1022
223 1022
224 1019
225 1019
226 1019
227 1019
228 1019
229 1019
230 1019
231 990
232 990
233 990
234 990
235 990
236 990
237 990
238 990
239 990
240 990
241 990
242 990
243 990
244 990
245 990
246 990
247 990
248 990
249 990
250 990
251 990
252 990
253 990
254 990
255 990
256 990
257 990
258 990
259 990
260 990
261 990
262 990
263 990
264 990
265 990
266 990
267 990
268 990
269 990
270 990
271 990
272 990
273 990
274 990
275 990
276 990
277 990
278 990
279 990
280 990
281 990
282 990
283 990
284 990
285 990
286 990
287 990
288 990
289 990
290 990
291 990
292 990
293 990
294 990
295 990
296 990
297 990
298 990
299 990
300 990
301 990
302 990
303 990
304 990
305 990
306 990
307 990
308 990
309 990
310 990
311 990
312 990
313 990
314 990
315 990
316 990
317 990
318 954
319 954
320 954
321 954
322 954
323 954
324 954
325 954
326 954
327 954
328 954
329 954
330 954
331 954
332 954
333 954
334 954
335 954
336 954
337 954
338 954
339 954
340 954
341 954
342 954
343 954
344 954
345 954
346 954
347 954
348 954
349 954
350 954
351 954
352 954
353 954
354 954
355 954
356 954
357 954
358 954
359 954
360 954
361 954
362 954
363 954
364 954
365 954
366 954
367 954
368 954
369 954
370 954
371 954
372 954
373 954
374 954
375 954
376 954
377 954
378 954
379 954
380 954
381 954
382 954
383 954
384 954
385 954
386 954
387 954
388 954
389 954
390 954
391 954
392 954
393 954
394 954
395 954
396 954
397 954
398 954
399 954
400 954
401 954
402 954
403 954
404 954
405 954
406 954
407 954
408 954
409 954
410 954
411 954
412 954
413 941
414 941
415 941
416 941
417 941
418 941
419 941
420 941
421 941
422 941
423 941
424 941
425 941
426 941
427 941
428 941
429 941
430 941
431 941
432 941
433 941
434 941
435 941
436 941
437 941
438 941
439 941
440 941
441 941
442 941
443 941
444 941
445 941
446 941
447 941
448 941
449 941
450 941
451 941
452 941
453 941
454 941
455 941
456 941
457 941
458 941
459 941
460 941
461 941
462 941
463 941
464 941
465 941
466 941
467 941
468 941
469 941
470 941
471 941
472 941
473 941
474 941
475 941
476 941
477 941
478 941
479 941
480 941
481 941
482 941
483 941
484 941
485 941
486 941
487 941
488 941
489 941
490 941
491 941
492 941
493 941
494 941
495 941
496 941
497 941
498 941
499 941
500 941
501 941
502 941
503 941
504 941
505 941
506 941
507 941
508 941
509 941
510 941
511 941
512 941
513 941
514 941
515 941
516 941
517 941
518 941
519 941
520 941
521 941
522 941
523 941
524 941
525 941
526 941
527 941
528 941
529 941
530 941
531 941
532 941
533 941
534 941
535 941
536 941
537 941
538 941
539 941
540 941
541 941
542 941
543 941
544 941
545 941
546 941
547 941
548 941
549 941
550 941
551 941
552 941
553 941
554 941
555 941
556 941
557 941
558 941
559 941
560 941
561 941
562 941
563 941
564 941
565 941
566 941
567 941
568 941
569 941
570 941
571 941
572 941
573 941
574 941
575 941
576 941
577 941
578 941
579 941
580 941
581 941
582 941
583 941
584 941
585 941
586 941
587 941
588 941
589 941
590 941
591 941
592 941
593 941
594 941
595 941
596 941
597 941
598 941
599 941
600 941
601 941
602 941
603 941
604 941
605 941
606 941
607 941
608 941
609 941
610 941
611 941
612 941
613 941
614 941
615 941
616 941
617 941
618 941
619 941
620 941
621 941
622 941
623 941
624 941
625 941
626 941
627 941
628 941
629 941
630 941
631 941
632 941
633 941
634 941
635 941
636 941
637 941
638 941
639 941
640 941
641 941
642 941
643 941
644 941
645 941
646 941
647 941
648 941
649 941
650 941
651 941
652 941
653 941
654 941
655 941
656 941
657 941
658 941
659 941
660 941
661 941
662 941
663 941
664 941
665 941
666 941
667 941
668 941
669 941
670 941
671 941
672 941
673 941
674 941
675 941
676 941
677 941
678 941
679 941
680 941
681 941
682 941
683 941
684 941
685 941
686 941
687 941
688 941
689 941
690 941
691 941
692 941
693 941
694 941
695 941
696 941
697 941
698 941
699 941
700 941
701 941
702 941
703 941
704 941
705 941
706 941
707 941
708 941
709 941
710 941
711 941
712 941
713 941
714 941
715 941
716 941
717 941
718 941
719 941
720 941
721 941
722 941
723 941
724 941
725 941
726 941
727 941
728 941
729 941
730 941
731 941
732 941
733 941
734 941
735 941
736 941
737 941
738 941
739 941
740 941
741 941
742 941
743 941
744 941
745 941
746 941
747 941
748 941
749 941
750 941
751 941
752 941
753 941
754 941
755 941
756 941
757 941
758 941
759 941
760 941
761 941
762 941
763 941
764 941
765 941
766 941
767 941
768 941
769 941
770 941
771 941
772 941
773 941
774 941
775 941
776 941
777 941
778 941
779 941
780 941
781 941
782 941
783 941
784 941
785 941
786 941
787 941
788 941
789 941
790 941
791 941
792 941
793 941
794 941
795 941
796 941
797 941
798 941
799 941
800 941
801 941
802 941
803 941
804 941
805 941
806 941
807 941
808 941
809 941
810 941
811 941
812 941
813 941
814 941
815 941
816 941
817 941
818 941
819 941
820 941
821 941
822 941
823 941
824 941
825 941
826 941
827 941
828 941
829 941
830 941
831 941
832 941
833 941
834 941
835 941
836 941
837 941
838 941
839 941
840 941
841 941
842 941
843 941
844 941
845 941
846 941
847 941
848 941
849 941
850 941
851 941
852 941
853 941
854 941
855 941
856 941
857 941
858 941
859 941
860 941
861 941
862 941
863 941
864 941
865 941
866 941
867 941
868 941
869 941
870 941
871 941
872 941
873 941
874 941
875 941
876 941
877 941
878 941
879 941
880 941
881 941
882 941
883 941
884 941
885 941
886 941
887 941
888 941
889 941
890 941
891 941
892 941
893 941
894 941
895 941
896 941
897 941
898 941
899 941
900 941
901 941
902 941
903 941
904 941
905 941
906 941
907 941
908 941
909 941
910 941
911 941
912 941
913 941
914 941
915 941
916 941
917 941
918 941
919 941
920 941
921 941
922 941
923 941
924 941
925 941
926 941
927 941
928 941
929 941
930 941
931 941
932 941
933 941
934 941
935 941
936 941
937 941
938 941
939 941
940 941
941 941
942 941
943 941
944 941
945 941
946 941
947 941
948 941
949 941
950 941
951 941
952 941
953 941
954 941
955 941
956 941
957 941
958 941
959 941
960 941
961 941
962 941
963 941
964 941
965 941
966 941
967 941
968 941
969 941
970 941
971 941
972 941
973 941
974 941
975 941
976 941
977 941
978 941
979 941
980 941
981 941
982 941
983 941
984 941
985 941
986 941
987 941
988 941
989 941
990 941
991 941
992 941
993 941
994 941
995 941
996 941
997 941
998 941
999 941
Best: [[25,15,29,5,12,19,16,30],
       [28,23,10,8,2,13],
       [21,6,26,11,9,24,3,4,7],
       [31],
       [27,17,22,32,20,18,14]], fitness: 941
